results_rootrelaxation/bin018_060_023.srr.sol
solution status: optimal solution found
objective value:                                    0
_var1415_                          0.0488396909143798 	(obj:0)
_var2835_                          0.0583563090593413 	(obj:0)
_var2840_                           0.130858224359999 	(obj:0)
_var2851_                           0.166085292208197 	(obj:0)
_var2876_                          0.0450164506148371 	(obj:0)
_var2880_                           0.178127335803091 	(obj:0)
_var2885_                          0.0241950432617646 	(obj:0)
_var2886_                          0.0208904852576787 	(obj:0)
_var2901_                          0.0328382856228691 	(obj:0)
_var2902_                          0.0488440806006143 	(obj:0)
_var2919_                           0.127145147449065 	(obj:0)
_var2926_                           0.241800539273128 	(obj:0)
_var2941_                           0.371867561887827 	(obj:0)
_var2945_                          0.0884948908986559 	(obj:0)
_var2949_                           0.131783926779442 	(obj:0)
_var2953_                          0.0428778034976607 	(obj:0)
_var2955_                         0.00167837943593852 	(obj:0)
_var2966_                           0.273800897241424 	(obj:0)
_var2976_                          0.0540604425556874 	(obj:0)
_var2978_                          0.0606805331870875 	(obj:0)
_var2985_                           0.102499245855298 	(obj:0)
_var2987_                          0.0290524862426008 	(obj:0)
_var2990_                           0.202166855803505 	(obj:0)
_var2992_                           0.205659908653108 	(obj:0)
_var2995_                           0.119351098126254 	(obj:0)
_var2996_                           0.186555879403811 	(obj:0)
_var2998_                           0.206659795103627 	(obj:0)
_var3001_                          0.0393129297895198 	(obj:0)
_var3004_                          0.0588595297074229 	(obj:0)
_var3011_                             0.1272999396382 	(obj:0)
_var3012_                            0.10245922658345 	(obj:0)
_var3015_                           0.251236938322233 	(obj:0)
_var3016_                           0.240560747108884 	(obj:0)
_var3018_                           0.233026822217989 	(obj:0)
_var3020_                          0.0594948797285142 	(obj:0)
_var3022_                         0.00139173059737842 	(obj:0)
_var3023_                          0.0745505872850721 	(obj:0)
_var3024_                           0.162832352754975 	(obj:0)
_var3029_                           0.281851916466598 	(obj:0)
_var3030_                           0.202777678840931 	(obj:0)
_var3046_                          0.0659390942599673 	(obj:0)
_var3049_                           0.196691706157432 	(obj:0)
_var3053_                          0.0971359371994625 	(obj:0)
_var3055_                          0.0457494233454158 	(obj:0)
_var3056_                         0.00859067151745324 	(obj:0)
_var3063_                           0.133123420064571 	(obj:0)
_var3065_                           0.292999959582058 	(obj:0)
_var3067_                           0.187210109231872 	(obj:0)
_var3068_                           0.155925444496894 	(obj:0)
_var3071_                          0.0715479573816112 	(obj:0)
_var3073_                           0.134153656444873 	(obj:0)
_var3078_                           0.127878478573881 	(obj:0)
_var3081_                          0.0351251301358351 	(obj:0)
_var3082_                           0.232956955820823 	(obj:0)
_var3084_                          0.0440136035521701 	(obj:0)
_var3087_                           0.178941211502803 	(obj:0)
_var3089_                          0.0831873389034158 	(obj:0)
_var3090_                           0.275441475174867 	(obj:0)
_var3091_                           0.177939341316579 	(obj:0)
_var3095_                          0.0865441083042429 	(obj:0)
_var3096_                           0.194488956546473 	(obj:0)
_var3098_                          0.0423442577915887 	(obj:0)
_var3100_                           0.132587864409191 	(obj:0)
_var3103_                           0.108758223837315 	(obj:0)
_var3105_                          0.0154992117279116 	(obj:0)
_var3108_                          0.0116284138304459 	(obj:0)
_var3109_                           0.176079964541304 	(obj:0)
_var3112_                           0.251659828550582 	(obj:0)
_var3114_                          0.0465961653144529 	(obj:0)
_var3115_                           0.145167728251902 	(obj:0)
_var3117_                           0.172921545199408 	(obj:0)
_var3119_                           0.107091127508433 	(obj:0)
_var3121_                           0.132926081210037 	(obj:0)
_var3122_                           0.125876437914147 	(obj:0)
_var3124_                           0.333574849667751 	(obj:0)
_var3125_                           0.210234378519746 	(obj:0)
_var3126_                          0.0751181629066892 	(obj:0)
_var3128_                          0.0884711002495715 	(obj:0)
_var3132_                          0.0460255164708414 	(obj:0)
_var3133_                          0.0469518848921095 	(obj:0)
_var3135_                           0.161678269989835 	(obj:0)
_var3137_                           0.282704867279352 	(obj:0)
_var3139_                           0.200644258161388 	(obj:0)
_var3140_                            0.11932935964003 	(obj:0)
_var3142_                            0.12585635210636 	(obj:0)
_var3153_                             0.1487257468023 	(obj:0)
_var3155_                           0.180330909246112 	(obj:0)
_var3159_                         0.00591262328419305 	(obj:0)
_var3160_                           0.183980222807548 	(obj:0)
_var3161_                           0.262616903148756 	(obj:0)
_var3163_                          0.0447826374699891 	(obj:0)
_var3164_                           0.310249896288151 	(obj:0)
_var3167_                           0.248819231559225 	(obj:0)
_var3168_                          0.0165065200128734 	(obj:0)
_var3170_                           0.147295206131239 	(obj:0)
_var3171_                           0.056472856738251 	(obj:0)
_var3172_                           0.107055048992083 	(obj:0)
_var3174_                           0.167785953799038 	(obj:0)
_var3176_                           0.142405475979443 	(obj:0)
_var3178_                           0.334001429209493 	(obj:0)
_var3179_                           0.188154268770135 	(obj:0)
_var3180_                            0.22187467952671 	(obj:0)
_var3184_                         0.00369917694544136 	(obj:0)
_var3190_                          0.0193283850703769 	(obj:0)
_var3191_                          0.0366511978018441 	(obj:0)
_var3192_                          0.0453048179575443 	(obj:0)
_var3193_                          0.0854428301945875 	(obj:0)
_var3194_                           0.120616052267638 	(obj:0)
_var3198_                          0.0708707762772162 	(obj:0)
_var3200_                           0.122015225602166 	(obj:0)
_var3204_                         0.00086558486345914 	(obj:0)
_var3205_                           0.247488069318718 	(obj:0)
_var3206_                          0.0690602416175509 	(obj:0)
_var3207_                           0.268076723584206 	(obj:0)
_var3209_                          0.0716706626387884 	(obj:0)
_var3210_                           0.074042691103062 	(obj:0)
_var3213_                           0.145847160439358 	(obj:0)
_var3217_                          0.0123600557444806 	(obj:0)
_var3218_                          0.0341045562709745 	(obj:0)
_var3219_                           0.021423042882491 	(obj:0)
_var3221_                          0.0345120661768079 	(obj:0)
_var3223_                          0.0601669665035502 	(obj:0)
_var3224_                          0.0796263554469295 	(obj:0)
_var3227_                          0.0607070022465529 	(obj:0)
_var3229_                          0.0587245416798872 	(obj:0)
_var3232_                          0.0488802842228078 	(obj:0)
_var3233_                           0.144982095382781 	(obj:0)
_var3237_                           0.167437841702713 	(obj:0)
_var3240_                          0.0690725382755216 	(obj:0)
_var3242_                         0.00166648402962311 	(obj:0)
_var3244_                          0.0208471870747171 	(obj:0)
_var3246_                            0.31094206867807 	(obj:0)
_var3248_                          0.0653845032009378 	(obj:0)
_var3251_                          0.0702939459454084 	(obj:0)
_var3252_                           0.140468234929368 	(obj:0)
_var3253_                         0.00197258791274435 	(obj:0)
_var3254_                          0.0209720926114346 	(obj:0)
_var3256_                          0.0322362308188562 	(obj:0)
_var3258_                           0.127067505362047 	(obj:0)
_var3259_                          0.0474370971459884 	(obj:0)
_var3260_                           0.050157686075722 	(obj:0)
_var3262_                           0.073850770916368 	(obj:0)
_var3263_                          0.0337150572837935 	(obj:0)
_var3265_                          0.0169570974579736 	(obj:0)
_var3266_                         0.00640960775402362 	(obj:0)
_var3274_                         0.00281181959758224 	(obj:0)
_var3276_                         0.00113376236731797 	(obj:0)
_var3277_                         0.000467655608603061 	(obj:0)
_var3278_                         0.00875473762330471 	(obj:0)
_var3279_                         0.00535561800197337 	(obj:0)
